# Alanine dipeptide
#
units       real
atom_style    full
variable T equal 300.0


read_data   adp.lmp
include adp.forcefield
velocity     all create $T 2020 mom yes rot yes dist gaussian

neighbor    2.0 bin
neigh_modify  every 1 delay 0 check yes

variable        charge equal charge(all)
print "charge ${charge}"
variable ee equal ecoul+elong
variable evdw equal evdwl-etail
variable ecfg equal evdwl+v_ee+edihed+ebond+eangle
variable esrc equal evdwl
thermo_style custom time etotal temp  v_ecfg v_esrc  v_ee  ebond eangle edihed v_evdw epair etail press
thermo_modify flush yes format line "%13.6e %13.6e %13.6e %13.6e %13.6e %13.6e %13.6e %13.6e %13.6e %13.6e %13.6e %13.6e %13.6e"
thermo 100

fix         NVE all nve
timestep    1
run 0


