pair_style born/coul/long 11.0

pair_coeff 1 1       6.08114245       0.31700745       2.34000000      24.18021033      -11.51457935
pair_coeff 1 2       4.86491396       0.31700745       2.75500000     161.20458891     -200.06692161
pair_coeff 2 2       3.64868547       0.31700745       3.17000000    1669.62237094    -3353.72848948

pair_modify tail yes

kspace_style pppm 1e-6
