
pair_style   lj/cut 10.0
pair_coeff   1 1 0.2381 3.405
pair_modify    tail yes
